
p cnf 200 3054
-1 201 0
-5 -204 0
-2 202 0
-201 202 0
-2 -201 0
-3 203 0
-202 203 0
-3 -202 0
-4 204 0
-203 204 0
-4 -203 0
-2 205 0
-6 -208 0
-3 206 0
-205 206 0
-3 -205 0
-4 207 0
-206 207 0
-4 -206 0
-5 208 0
-207 208 0
-5 -207 0
-3 209 0
-7 -212 0
-4 210 0
-209 210 0
-4 -209 0
-5 211 0
-210 211 0
-5 -210 0
-6 212 0
-211 212 0
-6 -211 0
-4 213 0
-8 -216 0
-5 214 0
-213 214 0
-5 -213 0
-6 215 0
-214 215 0
-6 -214 0
-7 216 0
-215 216 0
-7 -215 0
-5 217 0
-9 -220 0
-6 218 0
-217 218 0
-6 -217 0
-7 219 0
-218 219 0
-7 -218 0
-8 220 0
-219 220 0
-8 -219 0
-6 221 0
-10 -224 0
-7 222 0
-221 222 0
-7 -221 0
-8 223 0
-222 223 0
-8 -222 0
-9 224 0
-223 224 0
-9 -223 0
-7 225 0
-11 -228 0
-8 226 0
-225 226 0
-8 -225 0
-9 227 0
-226 227 0
-9 -226 0
-10 228 0
-227 228 0
-10 -227 0
-8 229 0
-12 -232 0
-9 230 0
-229 230 0
-9 -229 0
-10 231 0
-230 231 0
-10 -230 0
-11 232 0
-231 232 0
-11 -231 0
-9 233 0
-13 -236 0
-10 234 0
-233 234 0
-10 -233 0
-11 235 0
-234 235 0
-11 -234 0
-12 236 0
-235 236 0
-12 -235 0
-10 237 0
-14 -240 0
-11 238 0
-237 238 0
-11 -237 0
-12 239 0
-238 239 0
-12 -238 0
-13 240 0
-239 240 0
-13 -239 0
-11 241 0
-15 -244 0
-12 242 0
-241 242 0
-12 -241 0
-13 243 0
-242 243 0
-13 -242 0
-14 244 0
-243 244 0
-14 -243 0
-12 245 0
-16 -248 0
-13 246 0
-245 246 0
-13 -245 0
-14 247 0
-246 247 0
-14 -246 0
-15 248 0
-247 248 0
-15 -247 0
-13 249 0
-17 -252 0
-14 250 0
-249 250 0
-14 -249 0
-15 251 0
-250 251 0
-15 -250 0
-16 252 0
-251 252 0
-16 -251 0
-14 253 0
-18 -256 0
-15 254 0
-253 254 0
-15 -253 0
-16 255 0
-254 255 0
-16 -254 0
-17 256 0
-255 256 0
-17 -255 0
-15 257 0
-19 -260 0
-16 258 0
-257 258 0
-16 -257 0
-17 259 0
-258 259 0
-17 -258 0
-18 260 0
-259 260 0
-18 -259 0
-16 261 0
-20 -264 0
-17 262 0
-261 262 0
-17 -261 0
-18 263 0
-262 263 0
-18 -262 0
-19 264 0
-263 264 0
-19 -263 0
-17 265 0
-21 -268 0
-18 266 0
-265 266 0
-18 -265 0
-19 267 0
-266 267 0
-19 -266 0
-20 268 0
-267 268 0
-20 -267 0
-18 269 0
-22 -272 0
-19 270 0
-269 270 0
-19 -269 0
-20 271 0
-270 271 0
-20 -270 0
-21 272 0
-271 272 0
-21 -271 0
-19 273 0
-23 -276 0
-20 274 0
-273 274 0
-20 -273 0
-21 275 0
-274 275 0
-21 -274 0
-22 276 0
-275 276 0
-22 -275 0
-20 277 0
-24 -280 0
-21 278 0
-277 278 0
-21 -277 0
-22 279 0
-278 279 0
-22 -278 0
-23 280 0
-279 280 0
-23 -279 0
-21 281 0
-25 -284 0
-22 282 0
-281 282 0
-22 -281 0
-23 283 0
-282 283 0
-23 -282 0
-24 284 0
-283 284 0
-24 -283 0
-22 285 0
-26 -288 0
-23 286 0
-285 286 0
-23 -285 0
-24 287 0
-286 287 0
-24 -286 0
-25 288 0
-287 288 0
-25 -287 0
-23 289 0
-27 -292 0
-24 290 0
-289 290 0
-24 -289 0
-25 291 0
-290 291 0
-25 -290 0
-26 292 0
-291 292 0
-26 -291 0
-24 293 0
-28 -296 0
-25 294 0
-293 294 0
-25 -293 0
-26 295 0
-294 295 0
-26 -294 0
-27 296 0
-295 296 0
-27 -295 0
-25 297 0
-29 -300 0
-26 298 0
-297 298 0
-26 -297 0
-27 299 0
-298 299 0
-27 -298 0
-28 300 0
-299 300 0
-28 -299 0
-26 301 0
-30 -304 0
-27 302 0
-301 302 0
-27 -301 0
-28 303 0
-302 303 0
-28 -302 0
-29 304 0
-303 304 0
-29 -303 0
-27 305 0
-31 -308 0
-28 306 0
-305 306 0
-28 -305 0
-29 307 0
-306 307 0
-29 -306 0
-30 308 0
-307 308 0
-30 -307 0
-28 309 0
-32 -312 0
-29 310 0
-309 310 0
-29 -309 0
-30 311 0
-310 311 0
-30 -310 0
-31 312 0
-311 312 0
-31 -311 0
-29 313 0
-33 -316 0
-30 314 0
-313 314 0
-30 -313 0
-31 315 0
-314 315 0
-31 -314 0
-32 316 0
-315 316 0
-32 -315 0
-30 317 0
-34 -320 0
-31 318 0
-317 318 0
-31 -317 0
-32 319 0
-318 319 0
-32 -318 0
-33 320 0
-319 320 0
-33 -319 0
-31 321 0
-35 -324 0
-32 322 0
-321 322 0
-32 -321 0
-33 323 0
-322 323 0
-33 -322 0
-34 324 0
-323 324 0
-34 -323 0
-32 325 0
-36 -328 0
-33 326 0
-325 326 0
-33 -325 0
-34 327 0
-326 327 0
-34 -326 0
-35 328 0
-327 328 0
-35 -327 0
-33 329 0
-37 -332 0
-34 330 0
-329 330 0
-34 -329 0
-35 331 0
-330 331 0
-35 -330 0
-36 332 0
-331 332 0
-36 -331 0
-34 333 0
-38 -336 0
-35 334 0
-333 334 0
-35 -333 0
-36 335 0
-334 335 0
-36 -334 0
-37 336 0
-335 336 0
-37 -335 0
-35 337 0
-39 -340 0
-36 338 0
-337 338 0
-36 -337 0
-37 339 0
-338 339 0
-37 -338 0
-38 340 0
-339 340 0
-38 -339 0
-36 341 0
-40 -344 0
-37 342 0
-341 342 0
-37 -341 0
-38 343 0
-342 343 0
-38 -342 0
-39 344 0
-343 344 0
-39 -343 0
-37 345 0
-41 -348 0
-38 346 0
-345 346 0
-38 -345 0
-39 347 0
-346 347 0
-39 -346 0
-40 348 0
-347 348 0
-40 -347 0
-38 349 0
-42 -352 0
-39 350 0
-349 350 0
-39 -349 0
-40 351 0
-350 351 0
-40 -350 0
-41 352 0
-351 352 0
-41 -351 0
-39 353 0
-43 -356 0
-40 354 0
-353 354 0
-40 -353 0
-41 355 0
-354 355 0
-41 -354 0
-42 356 0
-355 356 0
-42 -355 0
-40 357 0
-44 -360 0
-41 358 0
-357 358 0
-41 -357 0
-42 359 0
-358 359 0
-42 -358 0
-43 360 0
-359 360 0
-43 -359 0
-41 361 0
-45 -364 0
-42 362 0
-361 362 0
-42 -361 0
-43 363 0
-362 363 0
-43 -362 0
-44 364 0
-363 364 0
-44 -363 0
-42 365 0
-46 -368 0
-43 366 0
-365 366 0
-43 -365 0
-44 367 0
-366 367 0
-44 -366 0
-45 368 0
-367 368 0
-45 -367 0
-43 369 0
-47 -372 0
-44 370 0
-369 370 0
-44 -369 0
-45 371 0
-370 371 0
-45 -370 0
-46 372 0
-371 372 0
-46 -371 0
-44 373 0
-48 -376 0
-45 374 0
-373 374 0
-45 -373 0
-46 375 0
-374 375 0
-46 -374 0
-47 376 0
-375 376 0
-47 -375 0
-45 377 0
-49 -380 0
-46 378 0
-377 378 0
-46 -377 0
-47 379 0
-378 379 0
-47 -378 0
-48 380 0
-379 380 0
-48 -379 0
-46 381 0
-50 -384 0
-47 382 0
-381 382 0
-47 -381 0
-48 383 0
-382 383 0
-48 -382 0
-49 384 0
-383 384 0
-49 -383 0
-47 385 0
-51 -388 0
-48 386 0
-385 386 0
-48 -385 0
-49 387 0
-386 387 0
-49 -386 0
-50 388 0
-387 388 0
-50 -387 0
-48 389 0
-52 -392 0
-49 390 0
-389 390 0
-49 -389 0
-50 391 0
-390 391 0
-50 -390 0
-51 392 0
-391 392 0
-51 -391 0
-49 393 0
-53 -396 0
-50 394 0
-393 394 0
-50 -393 0
-51 395 0
-394 395 0
-51 -394 0
-52 396 0
-395 396 0
-52 -395 0
-50 397 0
-54 -400 0
-51 398 0
-397 398 0
-51 -397 0
-52 399 0
-398 399 0
-52 -398 0
-53 400 0
-399 400 0
-53 -399 0
-51 401 0
-55 -404 0
-52 402 0
-401 402 0
-52 -401 0
-53 403 0
-402 403 0
-53 -402 0
-54 404 0
-403 404 0
-54 -403 0
-52 405 0
-56 -408 0
-53 406 0
-405 406 0
-53 -405 0
-54 407 0
-406 407 0
-54 -406 0
-55 408 0
-407 408 0
-55 -407 0
-53 409 0
-57 -412 0
-54 410 0
-409 410 0
-54 -409 0
-55 411 0
-410 411 0
-55 -410 0
-56 412 0
-411 412 0
-56 -411 0
-54 413 0
-58 -416 0
-55 414 0
-413 414 0
-55 -413 0
-56 415 0
-414 415 0
-56 -414 0
-57 416 0
-415 416 0
-57 -415 0
-55 417 0
-59 -420 0
-56 418 0
-417 418 0
-56 -417 0
-57 419 0
-418 419 0
-57 -418 0
-58 420 0
-419 420 0
-58 -419 0
-56 421 0
-60 -424 0
-57 422 0
-421 422 0
-57 -421 0
-58 423 0
-422 423 0
-58 -422 0
-59 424 0
-423 424 0
-59 -423 0
-57 425 0
-61 -428 0
-58 426 0
-425 426 0
-58 -425 0
-59 427 0
-426 427 0
-59 -426 0
-60 428 0
-427 428 0
-60 -427 0
-58 429 0
-62 -432 0
-59 430 0
-429 430 0
-59 -429 0
-60 431 0
-430 431 0
-60 -430 0
-61 432 0
-431 432 0
-61 -431 0
-59 433 0
-63 -436 0
-60 434 0
-433 434 0
-60 -433 0
-61 435 0
-434 435 0
-61 -434 0
-62 436 0
-435 436 0
-62 -435 0
-60 437 0
-64 -440 0
-61 438 0
-437 438 0
-61 -437 0
-62 439 0
-438 439 0
-62 -438 0
-63 440 0
-439 440 0
-63 -439 0
-61 441 0
-65 -444 0
-62 442 0
-441 442 0
-62 -441 0
-63 443 0
-442 443 0
-63 -442 0
-64 444 0
-443 444 0
-64 -443 0
-62 445 0
-66 -448 0
-63 446 0
-445 446 0
-63 -445 0
-64 447 0
-446 447 0
-64 -446 0
-65 448 0
-447 448 0
-65 -447 0
-63 449 0
-67 -452 0
-64 450 0
-449 450 0
-64 -449 0
-65 451 0
-450 451 0
-65 -450 0
-66 452 0
-451 452 0
-66 -451 0
-64 453 0
-68 -456 0
-65 454 0
-453 454 0
-65 -453 0
-66 455 0
-454 455 0
-66 -454 0
-67 456 0
-455 456 0
-67 -455 0
-65 457 0
-69 -460 0
-66 458 0
-457 458 0
-66 -457 0
-67 459 0
-458 459 0
-67 -458 0
-68 460 0
-459 460 0
-68 -459 0
-66 461 0
-70 -464 0
-67 462 0
-461 462 0
-67 -461 0
-68 463 0
-462 463 0
-68 -462 0
-69 464 0
-463 464 0
-69 -463 0
-67 465 0
-71 -468 0
-68 466 0
-465 466 0
-68 -465 0
-69 467 0
-466 467 0
-69 -466 0
-70 468 0
-467 468 0
-70 -467 0
-68 469 0
-72 -472 0
-69 470 0
-469 470 0
-69 -469 0
-70 471 0
-470 471 0
-70 -470 0
-71 472 0
-471 472 0
-71 -471 0
-69 473 0
-73 -476 0
-70 474 0
-473 474 0
-70 -473 0
-71 475 0
-474 475 0
-71 -474 0
-72 476 0
-475 476 0
-72 -475 0
-70 477 0
-74 -480 0
-71 478 0
-477 478 0
-71 -477 0
-72 479 0
-478 479 0
-72 -478 0
-73 480 0
-479 480 0
-73 -479 0
-71 481 0
-75 -484 0
-72 482 0
-481 482 0
-72 -481 0
-73 483 0
-482 483 0
-73 -482 0
-74 484 0
-483 484 0
-74 -483 0
-72 485 0
-76 -488 0
-73 486 0
-485 486 0
-73 -485 0
-74 487 0
-486 487 0
-74 -486 0
-75 488 0
-487 488 0
-75 -487 0
-73 489 0
-77 -492 0
-74 490 0
-489 490 0
-74 -489 0
-75 491 0
-490 491 0
-75 -490 0
-76 492 0
-491 492 0
-76 -491 0
-74 493 0
-78 -496 0
-75 494 0
-493 494 0
-75 -493 0
-76 495 0
-494 495 0
-76 -494 0
-77 496 0
-495 496 0
-77 -495 0
-75 497 0
-79 -500 0
-76 498 0
-497 498 0
-76 -497 0
-77 499 0
-498 499 0
-77 -498 0
-78 500 0
-499 500 0
-78 -499 0
-76 501 0
-80 -504 0
-77 502 0
-501 502 0
-77 -501 0
-78 503 0
-502 503 0
-78 -502 0
-79 504 0
-503 504 0
-79 -503 0
-77 505 0
-81 -508 0
-78 506 0
-505 506 0
-78 -505 0
-79 507 0
-506 507 0
-79 -506 0
-80 508 0
-507 508 0
-80 -507 0
-78 509 0
-82 -512 0
-79 510 0
-509 510 0
-79 -509 0
-80 511 0
-510 511 0
-80 -510 0
-81 512 0
-511 512 0
-81 -511 0
-79 513 0
-83 -516 0
-80 514 0
-513 514 0
-80 -513 0
-81 515 0
-514 515 0
-81 -514 0
-82 516 0
-515 516 0
-82 -515 0
-80 517 0
-84 -520 0
-81 518 0
-517 518 0
-81 -517 0
-82 519 0
-518 519 0
-82 -518 0
-83 520 0
-519 520 0
-83 -519 0
-81 521 0
-85 -524 0
-82 522 0
-521 522 0
-82 -521 0
-83 523 0
-522 523 0
-83 -522 0
-84 524 0
-523 524 0
-84 -523 0
-82 525 0
-86 -528 0
-83 526 0
-525 526 0
-83 -525 0
-84 527 0
-526 527 0
-84 -526 0
-85 528 0
-527 528 0
-85 -527 0
-83 529 0
-87 -532 0
-84 530 0
-529 530 0
-84 -529 0
-85 531 0
-530 531 0
-85 -530 0
-86 532 0
-531 532 0
-86 -531 0
-84 533 0
-88 -536 0
-85 534 0
-533 534 0
-85 -533 0
-86 535 0
-534 535 0
-86 -534 0
-87 536 0
-535 536 0
-87 -535 0
-85 537 0
-89 -540 0
-86 538 0
-537 538 0
-86 -537 0
-87 539 0
-538 539 0
-87 -538 0
-88 540 0
-539 540 0
-88 -539 0
-86 541 0
-90 -544 0
-87 542 0
-541 542 0
-87 -541 0
-88 543 0
-542 543 0
-88 -542 0
-89 544 0
-543 544 0
-89 -543 0
-87 545 0
-91 -548 0
-88 546 0
-545 546 0
-88 -545 0
-89 547 0
-546 547 0
-89 -546 0
-90 548 0
-547 548 0
-90 -547 0
-88 549 0
-92 -552 0
-89 550 0
-549 550 0
-89 -549 0
-90 551 0
-550 551 0
-90 -550 0
-91 552 0
-551 552 0
-91 -551 0
-89 553 0
-93 -556 0
-90 554 0
-553 554 0
-90 -553 0
-91 555 0
-554 555 0
-91 -554 0
-92 556 0
-555 556 0
-92 -555 0
-90 557 0
-94 -560 0
-91 558 0
-557 558 0
-91 -557 0
-92 559 0
-558 559 0
-92 -558 0
-93 560 0
-559 560 0
-93 -559 0
-91 561 0
-95 -564 0
-92 562 0
-561 562 0
-92 -561 0
-93 563 0
-562 563 0
-93 -562 0
-94 564 0
-563 564 0
-94 -563 0
-92 565 0
-96 -568 0
-93 566 0
-565 566 0
-93 -565 0
-94 567 0
-566 567 0
-94 -566 0
-95 568 0
-567 568 0
-95 -567 0
-93 569 0
-97 -572 0
-94 570 0
-569 570 0
-94 -569 0
-95 571 0
-570 571 0
-95 -570 0
-96 572 0
-571 572 0
-96 -571 0
-94 573 0
-98 -576 0
-95 574 0
-573 574 0
-95 -573 0
-96 575 0
-574 575 0
-96 -574 0
-97 576 0
-575 576 0
-97 -575 0
-95 577 0
-99 -580 0
-96 578 0
-577 578 0
-96 -577 0
-97 579 0
-578 579 0
-97 -578 0
-98 580 0
-579 580 0
-98 -579 0
-96 581 0
-100 -584 0
-97 582 0
-581 582 0
-97 -581 0
-98 583 0
-582 583 0
-98 -582 0
-99 584 0
-583 584 0
-99 -583 0
-97 585 0
-101 -588 0
-98 586 0
-585 586 0
-98 -585 0
-99 587 0
-586 587 0
-99 -586 0
-100 588 0
-587 588 0
-100 -587 0
-98 589 0
-102 -592 0
-99 590 0
-589 590 0
-99 -589 0
-100 591 0
-590 591 0
-100 -590 0
-101 592 0
-591 592 0
-101 -591 0
-99 593 0
-103 -596 0
-100 594 0
-593 594 0
-100 -593 0
-101 595 0
-594 595 0
-101 -594 0
-102 596 0
-595 596 0
-102 -595 0
-100 597 0
-104 -600 0
-101 598 0
-597 598 0
-101 -597 0
-102 599 0
-598 599 0
-102 -598 0
-103 600 0
-599 600 0
-103 -599 0
-101 601 0
-105 -604 0
-102 602 0
-601 602 0
-102 -601 0
-103 603 0
-602 603 0
-103 -602 0
-104 604 0
-603 604 0
-104 -603 0
-102 605 0
-106 -608 0
-103 606 0
-605 606 0
-103 -605 0
-104 607 0
-606 607 0
-104 -606 0
-105 608 0
-607 608 0
-105 -607 0
-103 609 0
-107 -612 0
-104 610 0
-609 610 0
-104 -609 0
-105 611 0
-610 611 0
-105 -610 0
-106 612 0
-611 612 0
-106 -611 0
-104 613 0
-108 -616 0
-105 614 0
-613 614 0
-105 -613 0
-106 615 0
-614 615 0
-106 -614 0
-107 616 0
-615 616 0
-107 -615 0
-105 617 0
-109 -620 0
-106 618 0
-617 618 0
-106 -617 0
-107 619 0
-618 619 0
-107 -618 0
-108 620 0
-619 620 0
-108 -619 0
-106 621 0
-110 -624 0
-107 622 0
-621 622 0
-107 -621 0
-108 623 0
-622 623 0
-108 -622 0
-109 624 0
-623 624 0
-109 -623 0
-107 625 0
-111 -628 0
-108 626 0
-625 626 0
-108 -625 0
-109 627 0
-626 627 0
-109 -626 0
-110 628 0
-627 628 0
-110 -627 0
-108 629 0
-112 -632 0
-109 630 0
-629 630 0
-109 -629 0
-110 631 0
-630 631 0
-110 -630 0
-111 632 0
-631 632 0
-111 -631 0
-109 633 0
-113 -636 0
-110 634 0
-633 634 0
-110 -633 0
-111 635 0
-634 635 0
-111 -634 0
-112 636 0
-635 636 0
-112 -635 0
-110 637 0
-114 -640 0
-111 638 0
-637 638 0
-111 -637 0
-112 639 0
-638 639 0
-112 -638 0
-113 640 0
-639 640 0
-113 -639 0
-111 641 0
-115 -644 0
-112 642 0
-641 642 0
-112 -641 0
-113 643 0
-642 643 0
-113 -642 0
-114 644 0
-643 644 0
-114 -643 0
-112 645 0
-116 -648 0
-113 646 0
-645 646 0
-113 -645 0
-114 647 0
-646 647 0
-114 -646 0
-115 648 0
-647 648 0
-115 -647 0
-113 649 0
-117 -652 0
-114 650 0
-649 650 0
-114 -649 0
-115 651 0
-650 651 0
-115 -650 0
-116 652 0
-651 652 0
-116 -651 0
-114 653 0
-118 -656 0
-115 654 0
-653 654 0
-115 -653 0
-116 655 0
-654 655 0
-116 -654 0
-117 656 0
-655 656 0
-117 -655 0
-115 657 0
-119 -660 0
-116 658 0
-657 658 0
-116 -657 0
-117 659 0
-658 659 0
-117 -658 0
-118 660 0
-659 660 0
-118 -659 0
-116 661 0
-120 -664 0
-117 662 0
-661 662 0
-117 -661 0
-118 663 0
-662 663 0
-118 -662 0
-119 664 0
-663 664 0
-119 -663 0
-117 665 0
-121 -668 0
-118 666 0
-665 666 0
-118 -665 0
-119 667 0
-666 667 0
-119 -666 0
-120 668 0
-667 668 0
-120 -667 0
-118 669 0
-122 -672 0
-119 670 0
-669 670 0
-119 -669 0
-120 671 0
-670 671 0
-120 -670 0
-121 672 0
-671 672 0
-121 -671 0
-119 673 0
-123 -676 0
-120 674 0
-673 674 0
-120 -673 0
-121 675 0
-674 675 0
-121 -674 0
-122 676 0
-675 676 0
-122 -675 0
-120 677 0
-124 -680 0
-121 678 0
-677 678 0
-121 -677 0
-122 679 0
-678 679 0
-122 -678 0
-123 680 0
-679 680 0
-123 -679 0
-121 681 0
-125 -684 0
-122 682 0
-681 682 0
-122 -681 0
-123 683 0
-682 683 0
-123 -682 0
-124 684 0
-683 684 0
-124 -683 0
-122 685 0
-126 -688 0
-123 686 0
-685 686 0
-123 -685 0
-124 687 0
-686 687 0
-124 -686 0
-125 688 0
-687 688 0
-125 -687 0
-123 689 0
-127 -692 0
-124 690 0
-689 690 0
-124 -689 0
-125 691 0
-690 691 0
-125 -690 0
-126 692 0
-691 692 0
-126 -691 0
-124 693 0
-128 -696 0
-125 694 0
-693 694 0
-125 -693 0
-126 695 0
-694 695 0
-126 -694 0
-127 696 0
-695 696 0
-127 -695 0
-125 697 0
-129 -700 0
-126 698 0
-697 698 0
-126 -697 0
-127 699 0
-698 699 0
-127 -698 0
-128 700 0
-699 700 0
-128 -699 0
-126 701 0
-130 -704 0
-127 702 0
-701 702 0
-127 -701 0
-128 703 0
-702 703 0
-128 -702 0
-129 704 0
-703 704 0
-129 -703 0
-127 705 0
-131 -708 0
-128 706 0
-705 706 0
-128 -705 0
-129 707 0
-706 707 0
-129 -706 0
-130 708 0
-707 708 0
-130 -707 0
-128 709 0
-132 -712 0
-129 710 0
-709 710 0
-129 -709 0
-130 711 0
-710 711 0
-130 -710 0
-131 712 0
-711 712 0
-131 -711 0
-129 713 0
-133 -716 0
-130 714 0
-713 714 0
-130 -713 0
-131 715 0
-714 715 0
-131 -714 0
-132 716 0
-715 716 0
-132 -715 0
-130 717 0
-134 -720 0
-131 718 0
-717 718 0
-131 -717 0
-132 719 0
-718 719 0
-132 -718 0
-133 720 0
-719 720 0
-133 -719 0
-131 721 0
-135 -724 0
-132 722 0
-721 722 0
-132 -721 0
-133 723 0
-722 723 0
-133 -722 0
-134 724 0
-723 724 0
-134 -723 0
-132 725 0
-136 -728 0
-133 726 0
-725 726 0
-133 -725 0
-134 727 0
-726 727 0
-134 -726 0
-135 728 0
-727 728 0
-135 -727 0
-133 729 0
-137 -732 0
-134 730 0
-729 730 0
-134 -729 0
-135 731 0
-730 731 0
-135 -730 0
-136 732 0
-731 732 0
-136 -731 0
-134 733 0
-138 -736 0
-135 734 0
-733 734 0
-135 -733 0
-136 735 0
-734 735 0
-136 -734 0
-137 736 0
-735 736 0
-137 -735 0
-135 737 0
-139 -740 0
-136 738 0
-737 738 0
-136 -737 0
-137 739 0
-738 739 0
-137 -738 0
-138 740 0
-739 740 0
-138 -739 0
-136 741 0
-140 -744 0
-137 742 0
-741 742 0
-137 -741 0
-138 743 0
-742 743 0
-138 -742 0
-139 744 0
-743 744 0
-139 -743 0
-137 745 0
-141 -748 0
-138 746 0
-745 746 0
-138 -745 0
-139 747 0
-746 747 0
-139 -746 0
-140 748 0
-747 748 0
-140 -747 0
-138 749 0
-142 -752 0
-139 750 0
-749 750 0
-139 -749 0
-140 751 0
-750 751 0
-140 -750 0
-141 752 0
-751 752 0
-141 -751 0
-139 753 0
-143 -756 0
-140 754 0
-753 754 0
-140 -753 0
-141 755 0
-754 755 0
-141 -754 0
-142 756 0
-755 756 0
-142 -755 0
-140 757 0
-144 -760 0
-141 758 0
-757 758 0
-141 -757 0
-142 759 0
-758 759 0
-142 -758 0
-143 760 0
-759 760 0
-143 -759 0
-141 761 0
-145 -764 0
-142 762 0
-761 762 0
-142 -761 0
-143 763 0
-762 763 0
-143 -762 0
-144 764 0
-763 764 0
-144 -763 0
-142 765 0
-146 -768 0
-143 766 0
-765 766 0
-143 -765 0
-144 767 0
-766 767 0
-144 -766 0
-145 768 0
-767 768 0
-145 -767 0
-143 769 0
-147 -772 0
-144 770 0
-769 770 0
-144 -769 0
-145 771 0
-770 771 0
-145 -770 0
-146 772 0
-771 772 0
-146 -771 0
-144 773 0
-148 -776 0
-145 774 0
-773 774 0
-145 -773 0
-146 775 0
-774 775 0
-146 -774 0
-147 776 0
-775 776 0
-147 -775 0
-145 777 0
-149 -780 0
-146 778 0
-777 778 0
-146 -777 0
-147 779 0
-778 779 0
-147 -778 0
-148 780 0
-779 780 0
-148 -779 0
-146 781 0
-150 -784 0
-147 782 0
-781 782 0
-147 -781 0
-148 783 0
-782 783 0
-148 -782 0
-149 784 0
-783 784 0
-149 -783 0
-147 785 0
-151 -788 0
-148 786 0
-785 786 0
-148 -785 0
-149 787 0
-786 787 0
-149 -786 0
-150 788 0
-787 788 0
-150 -787 0
-148 789 0
-152 -792 0
-149 790 0
-789 790 0
-149 -789 0
-150 791 0
-790 791 0
-150 -790 0
-151 792 0
-791 792 0
-151 -791 0
-149 793 0
-153 -796 0
-150 794 0
-793 794 0
-150 -793 0
-151 795 0
-794 795 0
-151 -794 0
-152 796 0
-795 796 0
-152 -795 0
-150 797 0
-154 -800 0
-151 798 0
-797 798 0
-151 -797 0
-152 799 0
-798 799 0
-152 -798 0
-153 800 0
-799 800 0
-153 -799 0
-151 801 0
-155 -804 0
-152 802 0
-801 802 0
-152 -801 0
-153 803 0
-802 803 0
-153 -802 0
-154 804 0
-803 804 0
-154 -803 0
-152 805 0
-156 -808 0
-153 806 0
-805 806 0
-153 -805 0
-154 807 0
-806 807 0
-154 -806 0
-155 808 0
-807 808 0
-155 -807 0
-153 809 0
-157 -812 0
-154 810 0
-809 810 0
-154 -809 0
-155 811 0
-810 811 0
-155 -810 0
-156 812 0
-811 812 0
-156 -811 0
-154 813 0
-158 -816 0
-155 814 0
-813 814 0
-155 -813 0
-156 815 0
-814 815 0
-156 -814 0
-157 816 0
-815 816 0
-157 -815 0
-155 817 0
-159 -820 0
-156 818 0
-817 818 0
-156 -817 0
-157 819 0
-818 819 0
-157 -818 0
-158 820 0
-819 820 0
-158 -819 0
-156 821 0
-160 -824 0
-157 822 0
-821 822 0
-157 -821 0
-158 823 0
-822 823 0
-158 -822 0
-159 824 0
-823 824 0
-159 -823 0
-157 825 0
-161 -828 0
-158 826 0
-825 826 0
-158 -825 0
-159 827 0
-826 827 0
-159 -826 0
-160 828 0
-827 828 0
-160 -827 0
-158 829 0
-162 -832 0
-159 830 0
-829 830 0
-159 -829 0
-160 831 0
-830 831 0
-160 -830 0
-161 832 0
-831 832 0
-161 -831 0
-159 833 0
-163 -836 0
-160 834 0
-833 834 0
-160 -833 0
-161 835 0
-834 835 0
-161 -834 0
-162 836 0
-835 836 0
-162 -835 0
-160 837 0
-164 -840 0
-161 838 0
-837 838 0
-161 -837 0
-162 839 0
-838 839 0
-162 -838 0
-163 840 0
-839 840 0
-163 -839 0
-161 841 0
-165 -844 0
-162 842 0
-841 842 0
-162 -841 0
-163 843 0
-842 843 0
-163 -842 0
-164 844 0
-843 844 0
-164 -843 0
-162 845 0
-166 -848 0
-163 846 0
-845 846 0
-163 -845 0
-164 847 0
-846 847 0
-164 -846 0
-165 848 0
-847 848 0
-165 -847 0
-163 849 0
-167 -852 0
-164 850 0
-849 850 0
-164 -849 0
-165 851 0
-850 851 0
-165 -850 0
-166 852 0
-851 852 0
-166 -851 0
-164 853 0
-168 -856 0
-165 854 0
-853 854 0
-165 -853 0
-166 855 0
-854 855 0
-166 -854 0
-167 856 0
-855 856 0
-167 -855 0
-165 857 0
-169 -860 0
-166 858 0
-857 858 0
-166 -857 0
-167 859 0
-858 859 0
-167 -858 0
-168 860 0
-859 860 0
-168 -859 0
-166 861 0
-170 -864 0
-167 862 0
-861 862 0
-167 -861 0
-168 863 0
-862 863 0
-168 -862 0
-169 864 0
-863 864 0
-169 -863 0
-167 865 0
-171 -868 0
-168 866 0
-865 866 0
-168 -865 0
-169 867 0
-866 867 0
-169 -866 0
-170 868 0
-867 868 0
-170 -867 0
-168 869 0
-172 -872 0
-169 870 0
-869 870 0
-169 -869 0
-170 871 0
-870 871 0
-170 -870 0
-171 872 0
-871 872 0
-171 -871 0
-169 873 0
-173 -876 0
-170 874 0
-873 874 0
-170 -873 0
-171 875 0
-874 875 0
-171 -874 0
-172 876 0
-875 876 0
-172 -875 0
-170 877 0
-174 -880 0
-171 878 0
-877 878 0
-171 -877 0
-172 879 0
-878 879 0
-172 -878 0
-173 880 0
-879 880 0
-173 -879 0
-171 881 0
-175 -884 0
-172 882 0
-881 882 0
-172 -881 0
-173 883 0
-882 883 0
-173 -882 0
-174 884 0
-883 884 0
-174 -883 0
-172 885 0
-176 -888 0
-173 886 0
-885 886 0
-173 -885 0
-174 887 0
-886 887 0
-174 -886 0
-175 888 0
-887 888 0
-175 -887 0
-173 889 0
-177 -892 0
-174 890 0
-889 890 0
-174 -889 0
-175 891 0
-890 891 0
-175 -890 0
-176 892 0
-891 892 0
-176 -891 0
-174 893 0
-178 -896 0
-175 894 0
-893 894 0
-175 -893 0
-176 895 0
-894 895 0
-176 -894 0
-177 896 0
-895 896 0
-177 -895 0
-175 897 0
-179 -900 0
-176 898 0
-897 898 0
-176 -897 0
-177 899 0
-898 899 0
-177 -898 0
-178 900 0
-899 900 0
-178 -899 0
-176 901 0
-180 -904 0
-177 902 0
-901 902 0
-177 -901 0
-178 903 0
-902 903 0
-178 -902 0
-179 904 0
-903 904 0
-179 -903 0
-177 905 0
-181 -908 0
-178 906 0
-905 906 0
-178 -905 0
-179 907 0
-906 907 0
-179 -906 0
-180 908 0
-907 908 0
-180 -907 0
-178 909 0
-182 -912 0
-179 910 0
-909 910 0
-179 -909 0
-180 911 0
-910 911 0
-180 -910 0
-181 912 0
-911 912 0
-181 -911 0
-179 913 0
-183 -916 0
-180 914 0
-913 914 0
-180 -913 0
-181 915 0
-914 915 0
-181 -914 0
-182 916 0
-915 916 0
-182 -915 0
-180 917 0
-184 -920 0
-181 918 0
-917 918 0
-181 -917 0
-182 919 0
-918 919 0
-182 -918 0
-183 920 0
-919 920 0
-183 -919 0
-181 921 0
-185 -924 0
-182 922 0
-921 922 0
-182 -921 0
-183 923 0
-922 923 0
-183 -922 0
-184 924 0
-923 924 0
-184 -923 0
-182 925 0
-186 -928 0
-183 926 0
-925 926 0
-183 -925 0
-184 927 0
-926 927 0
-184 -926 0
-185 928 0
-927 928 0
-185 -927 0
-183 929 0
-187 -932 0
-184 930 0
-929 930 0
-184 -929 0
-185 931 0
-930 931 0
-185 -930 0
-186 932 0
-931 932 0
-186 -931 0
-184 933 0
-188 -936 0
-185 934 0
-933 934 0
-185 -933 0
-186 935 0
-934 935 0
-186 -934 0
-187 936 0
-935 936 0
-187 -935 0
-185 937 0
-189 -940 0
-186 938 0
-937 938 0
-186 -937 0
-187 939 0
-938 939 0
-187 -938 0
-188 940 0
-939 940 0
-188 -939 0
-186 941 0
-190 -944 0
-187 942 0
-941 942 0
-187 -941 0
-188 943 0
-942 943 0
-188 -942 0
-189 944 0
-943 944 0
-189 -943 0
-187 945 0
-191 -948 0
-188 946 0
-945 946 0
-188 -945 0
-189 947 0
-946 947 0
-189 -946 0
-190 948 0
-947 948 0
-190 -947 0
-188 949 0
-192 -952 0
-189 950 0
-949 950 0
-189 -949 0
-190 951 0
-950 951 0
-190 -950 0
-191 952 0
-951 952 0
-191 -951 0
-189 953 0
-193 -956 0
-190 954 0
-953 954 0
-190 -953 0
-191 955 0
-954 955 0
-191 -954 0
-192 956 0
-955 956 0
-192 -955 0
-190 957 0
-194 -960 0
-191 958 0
-957 958 0
-191 -957 0
-192 959 0
-958 959 0
-192 -958 0
-193 960 0
-959 960 0
-193 -959 0
-191 961 0
-195 -964 0
-192 962 0
-961 962 0
-192 -961 0
-193 963 0
-962 963 0
-193 -962 0
-194 964 0
-963 964 0
-194 -963 0
-192 965 0
-196 -968 0
-193 966 0
-965 966 0
-193 -965 0
-194 967 0
-966 967 0
-194 -966 0
-195 968 0
-967 968 0
-195 -967 0
-193 969 0
-197 -972 0
-194 970 0
-969 970 0
-194 -969 0
-195 971 0
-970 971 0
-195 -970 0
-196 972 0
-971 972 0
-196 -971 0
-194 973 0
-198 -976 0
-195 974 0
-973 974 0
-195 -973 0
-196 975 0
-974 975 0
-196 -974 0
-197 976 0
-975 976 0
-197 -975 0
-195 977 0
-199 -980 0
-196 978 0
-977 978 0
-196 -977 0
-197 979 0
-978 979 0
-197 -978 0
-198 980 0
-979 980 0
-198 -979 0
-196 981 0
-200 -984 0
-197 982 0
-981 982 0
-197 -981 0
-198 983 0
-982 983 0
-198 -982 0
-199 984 0
-983 984 0
-199 -983 0
-5 987 0
-4 987 0
-987 5 4 0
-987 986 0
-3 986 0
-986 987 3 0
-986 985 0
-2 985 0
-985 986 2 0
-10 990 0
-9 990 0
-990 10 9 0
-990 989 0
-8 989 0
-989 990 8 0
-989 988 0
-7 988 0
-988 989 7 0
-15 993 0
-14 993 0
-993 15 14 0
-993 992 0
-13 992 0
-992 993 13 0
-992 991 0
-12 991 0
-991 992 12 0
-20 996 0
-19 996 0
-996 20 19 0
-996 995 0
-18 995 0
-995 996 18 0
-995 994 0
-17 994 0
-994 995 17 0
-25 999 0
-24 999 0
-999 25 24 0
-999 998 0
-23 998 0
-998 999 23 0
-998 997 0
-22 997 0
-997 998 22 0
-30 1002 0
-29 1002 0
-1002 30 29 0
-1002 1001 0
-28 1001 0
-1001 1002 28 0
-1001 1000 0
-27 1000 0
-1000 1001 27 0
-35 1005 0
-34 1005 0
-1005 35 34 0
-1005 1004 0
-33 1004 0
-1004 1005 33 0
-1004 1003 0
-32 1003 0
-1003 1004 32 0
-40 1008 0
-39 1008 0
-1008 40 39 0
-1008 1007 0
-38 1007 0
-1007 1008 38 0
-1007 1006 0
-37 1006 0
-1006 1007 37 0
-45 1011 0
-44 1011 0
-1011 45 44 0
-1011 1010 0
-43 1010 0
-1010 1011 43 0
-1010 1009 0
-42 1009 0
-1009 1010 42 0
-50 1014 0
-49 1014 0
-1014 50 49 0
-1014 1013 0
-48 1013 0
-1013 1014 48 0
-1013 1012 0
-47 1012 0
-1012 1013 47 0
-55 1017 0
-54 1017 0
-1017 55 54 0
-1017 1016 0
-53 1016 0
-1016 1017 53 0
-1016 1015 0
-52 1015 0
-1015 1016 52 0
-60 1020 0
-59 1020 0
-1020 60 59 0
-1020 1019 0
-58 1019 0
-1019 1020 58 0
-1019 1018 0
-57 1018 0
-1018 1019 57 0
-65 1023 0
-64 1023 0
-1023 65 64 0
-1023 1022 0
-63 1022 0
-1022 1023 63 0
-1022 1021 0
-62 1021 0
-1021 1022 62 0
-70 1026 0
-69 1026 0
-1026 70 69 0
-1026 1025 0
-68 1025 0
-1025 1026 68 0
-1025 1024 0
-67 1024 0
-1024 1025 67 0
-75 1029 0
-74 1029 0
-1029 75 74 0
-1029 1028 0
-73 1028 0
-1028 1029 73 0
-1028 1027 0
-72 1027 0
-1027 1028 72 0
-80 1032 0
-79 1032 0
-1032 80 79 0
-1032 1031 0
-78 1031 0
-1031 1032 78 0
-1031 1030 0
-77 1030 0
-1030 1031 77 0
-85 1035 0
-84 1035 0
-1035 85 84 0
-1035 1034 0
-83 1034 0
-1034 1035 83 0
-1034 1033 0
-82 1033 0
-1033 1034 82 0
-90 1038 0
-89 1038 0
-1038 90 89 0
-1038 1037 0
-88 1037 0
-1037 1038 88 0
-1037 1036 0
-87 1036 0
-1036 1037 87 0
-95 1041 0
-94 1041 0
-1041 95 94 0
-1041 1040 0
-93 1040 0
-1040 1041 93 0
-1040 1039 0
-92 1039 0
-1039 1040 92 0
-100 1044 0
-99 1044 0
-1044 100 99 0
-1044 1043 0
-98 1043 0
-1043 1044 98 0
-1043 1042 0
-97 1042 0
-1042 1043 97 0
-105 1047 0
-104 1047 0
-1047 105 104 0
-1047 1046 0
-103 1046 0
-1046 1047 103 0
-1046 1045 0
-102 1045 0
-1045 1046 102 0
-110 1050 0
-109 1050 0
-1050 110 109 0
-1050 1049 0
-108 1049 0
-1049 1050 108 0
-1049 1048 0
-107 1048 0
-1048 1049 107 0
-115 1053 0
-114 1053 0
-1053 115 114 0
-1053 1052 0
-113 1052 0
-1052 1053 113 0
-1052 1051 0
-112 1051 0
-1051 1052 112 0
-120 1056 0
-119 1056 0
-1056 120 119 0
-1056 1055 0
-118 1055 0
-1055 1056 118 0
-1055 1054 0
-117 1054 0
-1054 1055 117 0
-125 1059 0
-124 1059 0
-1059 125 124 0
-1059 1058 0
-123 1058 0
-1058 1059 123 0
-1058 1057 0
-122 1057 0
-1057 1058 122 0
-130 1062 0
-129 1062 0
-1062 130 129 0
-1062 1061 0
-128 1061 0
-1061 1062 128 0
-1061 1060 0
-127 1060 0
-1060 1061 127 0
-135 1065 0
-134 1065 0
-1065 135 134 0
-1065 1064 0
-133 1064 0
-1064 1065 133 0
-1064 1063 0
-132 1063 0
-1063 1064 132 0
-140 1068 0
-139 1068 0
-1068 140 139 0
-1068 1067 0
-138 1067 0
-1067 1068 138 0
-1067 1066 0
-137 1066 0
-1066 1067 137 0
-145 1071 0
-144 1071 0
-1071 145 144 0
-1071 1070 0
-143 1070 0
-1070 1071 143 0
-1070 1069 0
-142 1069 0
-1069 1070 142 0
-150 1074 0
-149 1074 0
-1074 150 149 0
-1074 1073 0
-148 1073 0
-1073 1074 148 0
-1073 1072 0
-147 1072 0
-1072 1073 147 0
-155 1077 0
-154 1077 0
-1077 155 154 0
-1077 1076 0
-153 1076 0
-1076 1077 153 0
-1076 1075 0
-152 1075 0
-1075 1076 152 0
-160 1080 0
-159 1080 0
-1080 160 159 0
-1080 1079 0
-158 1079 0
-1079 1080 158 0
-1079 1078 0
-157 1078 0
-1078 1079 157 0
-165 1083 0
-164 1083 0
-1083 165 164 0
-1083 1082 0
-163 1082 0
-1082 1083 163 0
-1082 1081 0
-162 1081 0
-1081 1082 162 0
-170 1086 0
-169 1086 0
-1086 170 169 0
-1086 1085 0
-168 1085 0
-1085 1086 168 0
-1085 1084 0
-167 1084 0
-1084 1085 167 0
-175 1089 0
-174 1089 0
-1089 175 174 0
-1089 1088 0
-173 1088 0
-1088 1089 173 0
-1088 1087 0
-172 1087 0
-1087 1088 172 0
-180 1092 0
-179 1092 0
-1092 180 179 0
-1092 1091 0
-178 1091 0
-1091 1092 178 0
-1091 1090 0
-177 1090 0
-1090 1091 177 0
-185 1095 0
-184 1095 0
-1095 185 184 0
-1095 1094 0
-183 1094 0
-1094 1095 183 0
-1094 1093 0
-182 1093 0
-1093 1094 182 0
-190 1098 0
-189 1098 0
-1098 190 189 0
-1098 1097 0
-188 1097 0
-1097 1098 188 0
-1097 1096 0
-187 1096 0
-1096 1097 187 0
-195 1101 0
-194 1101 0
-1101 195 194 0
-1101 1100 0
-193 1100 0
-1100 1101 193 0
-1100 1099 0
-192 1099 0
-1099 1100 192 0
-6 1102 0
-7 1102 0
-1102 6 7 0
-1102 1103 0
-8 1103 0
-1103 1102 8 0
-1103 1104 0
-9 1104 0
-1104 1103 9 0
-11 1105 0
-12 1105 0
-1105 11 12 0
-1105 1106 0
-13 1106 0
-1106 1105 13 0
-1106 1107 0
-14 1107 0
-1107 1106 14 0
-16 1108 0
-17 1108 0
-1108 16 17 0
-1108 1109 0
-18 1109 0
-1109 1108 18 0
-1109 1110 0
-19 1110 0
-1110 1109 19 0
-21 1111 0
-22 1111 0
-1111 21 22 0
-1111 1112 0
-23 1112 0
-1112 1111 23 0
-1112 1113 0
-24 1113 0
-1113 1112 24 0
-26 1114 0
-27 1114 0
-1114 26 27 0
-1114 1115 0
-28 1115 0
-1115 1114 28 0
-1115 1116 0
-29 1116 0
-1116 1115 29 0
-31 1117 0
-32 1117 0
-1117 31 32 0
-1117 1118 0
-33 1118 0
-1118 1117 33 0
-1118 1119 0
-34 1119 0
-1119 1118 34 0
-36 1120 0
-37 1120 0
-1120 36 37 0
-1120 1121 0
-38 1121 0
-1121 1120 38 0
-1121 1122 0
-39 1122 0
-1122 1121 39 0
-41 1123 0
-42 1123 0
-1123 41 42 0
-1123 1124 0
-43 1124 0
-1124 1123 43 0
-1124 1125 0
-44 1125 0
-1125 1124 44 0
-46 1126 0
-47 1126 0
-1126 46 47 0
-1126 1127 0
-48 1127 0
-1127 1126 48 0
-1127 1128 0
-49 1128 0
-1128 1127 49 0
-51 1129 0
-52 1129 0
-1129 51 52 0
-1129 1130 0
-53 1130 0
-1130 1129 53 0
-1130 1131 0
-54 1131 0
-1131 1130 54 0
-56 1132 0
-57 1132 0
-1132 56 57 0
-1132 1133 0
-58 1133 0
-1133 1132 58 0
-1133 1134 0
-59 1134 0
-1134 1133 59 0
-61 1135 0
-62 1135 0
-1135 61 62 0
-1135 1136 0
-63 1136 0
-1136 1135 63 0
-1136 1137 0
-64 1137 0
-1137 1136 64 0
-66 1138 0
-67 1138 0
-1138 66 67 0
-1138 1139 0
-68 1139 0
-1139 1138 68 0
-1139 1140 0
-69 1140 0
-1140 1139 69 0
-71 1141 0
-72 1141 0
-1141 71 72 0
-1141 1142 0
-73 1142 0
-1142 1141 73 0
-1142 1143 0
-74 1143 0
-1143 1142 74 0
-76 1144 0
-77 1144 0
-1144 76 77 0
-1144 1145 0
-78 1145 0
-1145 1144 78 0
-1145 1146 0
-79 1146 0
-1146 1145 79 0
-81 1147 0
-82 1147 0
-1147 81 82 0
-1147 1148 0
-83 1148 0
-1148 1147 83 0
-1148 1149 0
-84 1149 0
-1149 1148 84 0
-86 1150 0
-87 1150 0
-1150 86 87 0
-1150 1151 0
-88 1151 0
-1151 1150 88 0
-1151 1152 0
-89 1152 0
-1152 1151 89 0
-91 1153 0
-92 1153 0
-1153 91 92 0
-1153 1154 0
-93 1154 0
-1154 1153 93 0
-1154 1155 0
-94 1155 0
-1155 1154 94 0
-96 1156 0
-97 1156 0
-1156 96 97 0
-1156 1157 0
-98 1157 0
-1157 1156 98 0
-1157 1158 0
-99 1158 0
-1158 1157 99 0
-101 1159 0
-102 1159 0
-1159 101 102 0
-1159 1160 0
-103 1160 0
-1160 1159 103 0
-1160 1161 0
-104 1161 0
-1161 1160 104 0
-106 1162 0
-107 1162 0
-1162 106 107 0
-1162 1163 0
-108 1163 0
-1163 1162 108 0
-1163 1164 0
-109 1164 0
-1164 1163 109 0
-111 1165 0
-112 1165 0
-1165 111 112 0
-1165 1166 0
-113 1166 0
-1166 1165 113 0
-1166 1167 0
-114 1167 0
-1167 1166 114 0
-116 1168 0
-117 1168 0
-1168 116 117 0
-1168 1169 0
-118 1169 0
-1169 1168 118 0
-1169 1170 0
-119 1170 0
-1170 1169 119 0
-121 1171 0
-122 1171 0
-1171 121 122 0
-1171 1172 0
-123 1172 0
-1172 1171 123 0
-1172 1173 0
-124 1173 0
-1173 1172 124 0
-126 1174 0
-127 1174 0
-1174 126 127 0
-1174 1175 0
-128 1175 0
-1175 1174 128 0
-1175 1176 0
-129 1176 0
-1176 1175 129 0
-131 1177 0
-132 1177 0
-1177 131 132 0
-1177 1178 0
-133 1178 0
-1178 1177 133 0
-1178 1179 0
-134 1179 0
-1179 1178 134 0
-136 1180 0
-137 1180 0
-1180 136 137 0
-1180 1181 0
-138 1181 0
-1181 1180 138 0
-1181 1182 0
-139 1182 0
-1182 1181 139 0
-141 1183 0
-142 1183 0
-1183 141 142 0
-1183 1184 0
-143 1184 0
-1184 1183 143 0
-1184 1185 0
-144 1185 0
-1185 1184 144 0
-146 1186 0
-147 1186 0
-1186 146 147 0
-1186 1187 0
-148 1187 0
-1187 1186 148 0
-1187 1188 0
-149 1188 0
-1188 1187 149 0
-151 1189 0
-152 1189 0
-1189 151 152 0
-1189 1190 0
-153 1190 0
-1190 1189 153 0
-1190 1191 0
-154 1191 0
-1191 1190 154 0
-156 1192 0
-157 1192 0
-1192 156 157 0
-1192 1193 0
-158 1193 0
-1193 1192 158 0
-1193 1194 0
-159 1194 0
-1194 1193 159 0
-161 1195 0
-162 1195 0
-1195 161 162 0
-1195 1196 0
-163 1196 0
-1196 1195 163 0
-1196 1197 0
-164 1197 0
-1197 1196 164 0
-166 1198 0
-167 1198 0
-1198 166 167 0
-1198 1199 0
-168 1199 0
-1199 1198 168 0
-1199 1200 0
-169 1200 0
-1200 1199 169 0
-171 1201 0
-172 1201 0
-1201 171 172 0
-1201 1202 0
-173 1202 0
-1202 1201 173 0
-1202 1203 0
-174 1203 0
-1203 1202 174 0
-176 1204 0
-177 1204 0
-1204 176 177 0
-1204 1205 0
-178 1205 0
-1205 1204 178 0
-1205 1206 0
-179 1206 0
-1206 1205 179 0
-181 1207 0
-182 1207 0
-1207 181 182 0
-1207 1208 0
-183 1208 0
-1208 1207 183 0
-1208 1209 0
-184 1209 0
-1209 1208 184 0
-186 1210 0
-187 1210 0
-1210 186 187 0
-1210 1211 0
-188 1211 0
-1211 1210 188 0
-1211 1212 0
-189 1212 0
-1212 1211 189 0
-191 1213 0
-192 1213 0
-1213 191 192 0
-1213 1214 0
-193 1214 0
-1214 1213 193 0
-1214 1215 0
-194 1215 0
-1215 1214 194 0
-196 1216 0
-197 1216 0
-1216 196 197 0
-1216 1217 0
-198 1217 0
-1217 1216 198 0
-1217 1218 0
-199 1218 0
-1218 1217 199 0
1 985 0
985 6 0
986 1102 0
987 1103 0
5 1104 0
6 988 1104 0
988 11 0
989 1105 0
990 1106 0
10 1107 0
11 991 1107 0
991 16 0
992 1108 0
993 1109 0
15 1110 0
16 994 1110 0
994 21 0
995 1111 0
996 1112 0
20 1113 0
21 997 1113 0
997 26 0
998 1114 0
999 1115 0
25 1116 0
26 1000 1116 0
1000 31 0
1001 1117 0
1002 1118 0
30 1119 0
31 1003 1119 0
1003 36 0
1004 1120 0
1005 1121 0
35 1122 0
36 1006 1122 0
1006 41 0
1007 1123 0
1008 1124 0
40 1125 0
41 1009 1125 0
1009 46 0
1010 1126 0
1011 1127 0
45 1128 0
46 1012 1128 0
1012 51 0
1013 1129 0
1014 1130 0
50 1131 0
51 1015 1131 0
1015 56 0
1016 1132 0
1017 1133 0
55 1134 0
56 1018 1134 0
1018 61 0
1019 1135 0
1020 1136 0
60 1137 0
61 1021 1137 0
1021 66 0
1022 1138 0
1023 1139 0
65 1140 0
66 1024 1140 0
1024 71 0
1025 1141 0
1026 1142 0
70 1143 0
71 1027 1143 0
1027 76 0
1028 1144 0
1029 1145 0
75 1146 0
76 1030 1146 0
1030 81 0
1031 1147 0
1032 1148 0
80 1149 0
81 1033 1149 0
1033 86 0
1034 1150 0
1035 1151 0
85 1152 0
86 1036 1152 0
1036 91 0
1037 1153 0
1038 1154 0
90 1155 0
91 1039 1155 0
1039 96 0
1040 1156 0
1041 1157 0
95 1158 0
96 1042 1158 0
1042 101 0
1043 1159 0
1044 1160 0
100 1161 0
101 1045 1161 0
1045 106 0
1046 1162 0
1047 1163 0
105 1164 0
106 1048 1164 0
1048 111 0
1049 1165 0
1050 1166 0
110 1167 0
111 1051 1167 0
1051 116 0
1052 1168 0
1053 1169 0
115 1170 0
116 1054 1170 0
1054 121 0
1055 1171 0
1056 1172 0
120 1173 0
121 1057 1173 0
1057 126 0
1058 1174 0
1059 1175 0
125 1176 0
126 1060 1176 0
1060 131 0
1061 1177 0
1062 1178 0
130 1179 0
131 1063 1179 0
1063 136 0
1064 1180 0
1065 1181 0
135 1182 0
136 1066 1182 0
1066 141 0
1067 1183 0
1068 1184 0
140 1185 0
141 1069 1185 0
1069 146 0
1070 1186 0
1071 1187 0
145 1188 0
146 1072 1188 0
1072 151 0
1073 1189 0
1074 1190 0
150 1191 0
151 1075 1191 0
1075 156 0
1076 1192 0
1077 1193 0
155 1194 0
156 1078 1194 0
1078 161 0
1079 1195 0
1080 1196 0
160 1197 0
161 1081 1197 0
1081 166 0
1082 1198 0
1083 1199 0
165 1200 0
166 1084 1200 0
1084 171 0
1085 1201 0
1086 1202 0
170 1203 0
171 1087 1203 0
1087 176 0
1088 1204 0
1089 1205 0
175 1206 0
176 1090 1206 0
1090 181 0
1091 1207 0
1092 1208 0
180 1209 0
181 1093 1209 0
1093 186 0
1094 1210 0
1095 1211 0
185 1212 0
186 1096 1212 0
1096 191 0
1097 1213 0
1098 1214 0
190 1215 0
191 1099 1215 0
1099 196 0
1100 1216 0
1101 1217 0
195 1218 0
196 1218 0
